(set-info :origin "SVCOMP13 benchmarks generated by Arie Gurfinkel")
(set-info :status unsat)
(set-logic HORN)
(declare-fun cp-rel-entry () Bool)
(declare-fun cp-rel-bb1.i.i26.i.i () Bool)
(declare-fun cp-rel-bb1.i.i (Real Real Real Real) Bool)
(assert |cp-rel-entry|)
(assert (forall ((?A Real) (?B Real) (?C Real) (?D Real) (?E Bool) )(let (($x931864 (and |cp-rel-entry| (<= ?D 0.0) (>= ?C 1.0) (<= ?C 1.0) (>= ?B 1.0) (<= ?B 1.0) (>= ?A 0.0) (<= ?A 0.0) (= ?E true) (>= ?D 0.0))))
(=> $x931864 (|cp-rel-bb1.i.i| ?A ?B ?C ?D))))
)
(assert (forall ((?A Real) (?B Real) (?C Real) (?D Real) (?E Real) (?F Real) (?G Real) (?H Real) (?I Bool) (?J Bool) (?K Bool) (?L Bool) (?M Bool) (?N Bool) (?O Real) (?P Real) (?Q Bool) (?R Bool) (?S Bool) (?T Bool) (?U Bool) (?V Bool) (?W Real) (?X Real) (?Y Bool) (?Z Bool) (?A1 Bool) (?B1 Bool) (?C1 Bool) (?D1 Bool) (?E1 Bool) (?F1 Bool) (?G1 Bool) (?H1 Bool) (?I1 Bool) (?J1 Bool) (?K1 Bool) (?L1 Real) (?M1 Real) (?N1 Bool) (?O1 Bool) (?P1 Bool) (?Q1 Bool) (?R1 Bool) (?S1 Bool) (?T1 Bool) (?U1 Bool) (?V1 Bool) (?W1 Bool) (?X1 Bool) (?Y1 Bool) (?Z1 Bool) (?A2 Real) (?B2 Real) (?C2 Real) (?D2 Real) (?E2 Bool) (?F2 Bool) (?G2 Bool) (?H2 Bool) (?I2 Bool) (?J2 Real) (?K2 Bool) (?L2 Real) (?M2 Real) (?N2 Bool) (?O2 Real) (?P2 Real) (?Q2 Bool) (?R2 Real) (?S2 Bool) (?T2 Bool) (?U2 Bool) )(let (($x16623 (|cp-rel-bb1.i.i| ?E ?F ?G ?H)))
(let (($x38643 (= ?I2 (or ?U2 ?T2))))
(let (($x293572 (or (not ?I) (and ?J ?K (not ?L)))))
(let (($x911165 (or (not ?I) ?K)))
(let (($x435054 (not ?M)))
(let (($x29066 (or $x435054 (and ?I ?N (<= ?O ?P) (>= ?O ?P)) (and ?J ?Q ?L (<= ?O ?B) (>= ?O ?B)))))
(let (($x16327 (or $x435054 (and ?N (not ?Q)) (and ?Q (not ?N)))))
(let (($x624492 (or (not ?R) (and ?M ?S (not ?T)))))
(let (($x475947 (or (not ?R) ?S)))
(let (($x347373 (not ?U)))
(let (($x595220 (or $x347373 (and ?R ?V (<= ?W ?X) (>= ?W ?X)) (and ?M ?Y ?T (<= ?W ?A) (>= ?W ?A)))))
(let (($x298685 (or $x347373 (and ?V (not ?Y)) (and ?Y (not ?V)))))
(let (($x472722 (or (not ?Z) (and ?U ?A1 ?B1))))
(let (($x142106 (or (not ?Z) ?A1)))
(let (($x863397 (or (not ?C1) (and ?Z ?D1 ?E1) (and ?U ?F1 (not ?B1)))))
(let (($x232817 (or (not ?C1) (and ?D1 (not ?F1)) (and ?F1 (not ?D1)))))
(let (($x409724 (or (not ?G1) (and ?C1 ?H1 (not ?I1)))))
(let (($x185077 (or (not ?G1) ?H1)))
(let (($x627010 (or (not ?J1) (and ?G1 ?K1 (<= ?L1 ?M1) (>= ?L1 ?M1)) (and ?C1 ?N1 ?I1 (<= ?L1 ?O) (>= ?L1 ?O)))))
(let (($x183996 (or (not ?J1) (and ?K1 (not ?N1)) (and ?N1 (not ?K1)))))
(let (($x39641 (or (not ?O1) (and ?J1 ?P1 (not ?Q1)))))
(let (($x302478 (or (not ?O1) ?P1)))
(let (($x421126 (or (not ?R1) (and ?O1 ?S1 ?I1))))
(let (($x319489 (or (not ?R1) ?S1)))
(let (($x405816 (or (not ?T1) (and ?O1 ?U1 (not ?I1)))))
(let (($x591554 (or (not ?T1) ?U1)))
(let (($x344407 (or (not ?V1) (and ?T1 ?W1 ?X1))))
(let (($x492561 (or (not ?V1) ?W1)))
(let (($x504387 (>= ?C2 0.0)))
(let (($x351767 (<= ?C2 0.0)))
(let (($x481001 (and ?Z ?H2 (not ?E1) (<= ?A2 0.0) (>= ?A2 0.0) (<= ?B2 ?O) (>= ?B2 ?O) $x351767 $x504387)))
(let (($x345228 (>= ?B2 ?L1)))
(let (($x171134 (<= ?B2 ?L1)))
(let (($x320640 (>= ?A2 ?C)))
(let (($x564318 (<= ?A2 ?C)))
(let (($x564235 (and ?J1 ?G2 ?Q1 $x564318 $x320640 $x171134 $x345228 (<= ?C2 ?D) (>= ?C2 ?D))))
(let (($x350666 (not ?Y1)))
(let (($x521881 (or $x350666 (and ?R1 ?Z1 $x564318 $x320640 $x171134 $x345228 (<= ?C2 ?D2) (>= ?C2 ?D2)) (and ?V1 ?E2 $x564318 $x320640 $x171134 $x345228 (<= ?C2 ?D) (>= ?C2 ?D)) (and ?T1 ?F2 (not ?X1) $x564318 $x320640 $x171134 $x345228 $x351767 $x504387) $x564235 $x481001)))
(let (($x279878 (or $x350666 (and ?Z1 (not ?E2) (not ?F2) (not ?G2) (not ?H2)) (and ?E2 (not ?Z1) (not ?F2) (not ?G2) (not ?H2)) (and ?F2 (not ?Z1) (not ?E2) (not ?G2) (not ?H2)) (and ?G2 (not ?Z1) (not ?E2) (not ?F2) (not ?H2)) (and ?H2 (not ?Z1) (not ?E2) (not ?F2) (not ?G2)))))
(let (($x42931 (= ?Y1 true)))
(let (($x255028 (= ?I2 true)))
(let (($x488502 (= ?L (= ?J2 0.0))))
(let (($x296633 (= ?L2 (ite ?K2 1.0 0.0))))
(let (($x635918 (= ?T (= ?M2 0.0))))
(let (($x83568 (= ?X (ite ?N2 1.0 0.0))))
(let (($x295061 (= ?B1 (= ?O2 0.0))))
(let (($x453213 (= ?E1 (= ?P2 0.0))))
(let (($x699381 (= ?Q2 (not (<= ?O 0.0)))))
(let (($x521484 (= ?R2 (+ (~ 1.0) ?O))))
(let (($x286424 (= ?M1 (ite ?Q2 ?R2 ?O))))
(let (($x608407 (= ?S2 (not (<= ?L1 1.0)))))
(let (($x287342 (= ?X1 (= ?L1 0.0))))
(let (($x863062 (= ?T2 (= ?W 0.0))))
(let (($x259428 (= ?U2 (= ?C2 0.0))))
(let (($x174580 (and (|cp-rel-bb1.i.i| ?A ?B ?C ?D) $x259428 $x863062 $x287342 (= ?D2 (ite ?S2 1.0 ?D)) $x608407 (= ?Q1 (= ?C 0.0)) $x286424 $x521484 $x699381 (= ?I1 (= ?D 0.0)) $x453213 $x295061 $x83568 (= ?N2 (= ?A 0.0)) $x635918 (= ?P (+ ?L2 ?B)) $x296633 (= ?K2 (not (<= 2.0 ?B))) $x488502 (>= ?H ?C2) (<= ?H ?C2) (>= ?G ?A2) (<= ?G ?A2) (>= ?F ?B2) (<= ?F ?B2) (>= ?E ?W) (<= ?E ?W) $x255028 $x42931 $x279878 $x521881 $x492561 $x344407 $x591554 $x405816 $x319489 $x421126 $x302478 $x39641 $x183996 $x627010 $x185077 $x409724 $x232817 $x863397 $x142106 $x472722 $x298685 $x595220 $x475947 $x624492 $x16327 $x29066 $x911165 $x293572 $x38643)))
(=> $x174580 $x16623)))))))))))))))))))))))))))))))))))))))))))))))))))))))))
)
(assert (forall ((?A Real) (?B Real) (?C Real) (?D Real) (?E Bool) (?F Bool) (?G Bool) (?H Bool) (?I Bool) (?J Bool) (?K Real) (?L Real) (?M Bool) (?N Bool) (?O Bool) (?P Bool) (?Q Bool) (?R Bool) (?S Real) (?T Real) (?U Bool) (?V Bool) (?W Bool) (?X Bool) (?Y Bool) (?Z Bool) (?A1 Bool) (?B1 Bool) (?C1 Bool) (?D1 Bool) (?E1 Bool) (?F1 Bool) (?G1 Bool) (?H1 Real) (?I1 Real) (?J1 Bool) (?K1 Bool) (?L1 Bool) (?M1 Bool) (?N1 Bool) (?O1 Bool) (?P1 Bool) (?Q1 Bool) (?R1 Bool) (?S1 Bool) (?T1 Bool) (?U1 Bool) (?V1 Bool) (?W1 Real) (?X1 Real) (?Y1 Real) (?Z1 Real) (?A2 Bool) (?B2 Bool) (?C2 Bool) (?D2 Bool) (?E2 Bool) (?F2 Real) (?G2 Bool) (?H2 Real) (?I2 Real) (?J2 Bool) (?K2 Real) (?L2 Real) (?M2 Bool) (?N2 Real) (?O2 Bool) (?P2 Bool) (?Q2 Bool) )(let (($x38643 (= ?E2 (or ?Q2 ?P2))))
(let (($x293572 (or (not ?E) (and ?F ?G (not ?H)))))
(let (($x911165 (or (not ?E) ?G)))
(let (($x435054 (not ?I)))
(let (($x573139 (or $x435054 (and ?E ?J (<= ?K ?L) (>= ?K ?L)) (and ?F ?M ?H (<= ?K ?B) (>= ?K ?B)))))
(let (($x16327 (or $x435054 (and ?J (not ?M)) (and ?M (not ?J)))))
(let (($x624492 (or (not ?N) (and ?I ?O (not ?P)))))
(let (($x475947 (or (not ?N) ?O)))
(let (($x347373 (not ?Q)))
(let (($x510111 (or $x347373 (and ?N ?R (<= ?S ?T) (>= ?S ?T)) (and ?I ?U ?P (<= ?S ?A) (>= ?S ?A)))))
(let (($x298685 (or $x347373 (and ?R (not ?U)) (and ?U (not ?R)))))
(let (($x472722 (or (not ?V) (and ?Q ?W ?X))))
(let (($x142106 (or (not ?V) ?W)))
(let (($x863397 (or (not ?Y) (and ?V ?Z ?A1) (and ?Q ?B1 (not ?X)))))
(let (($x232817 (or (not ?Y) (and ?Z (not ?B1)) (and ?B1 (not ?Z)))))
(let (($x409724 (or (not ?C1) (and ?Y ?D1 (not ?E1)))))
(let (($x185077 (or (not ?C1) ?D1)))
(let (($x627010 (or (not ?F1) (and ?C1 ?G1 (<= ?H1 ?I1) (>= ?H1 ?I1)) (and ?Y ?J1 ?E1 (<= ?H1 ?K) (>= ?H1 ?K)))))
(let (($x183996 (or (not ?F1) (and ?G1 (not ?J1)) (and ?J1 (not ?G1)))))
(let (($x39641 (or (not ?K1) (and ?F1 ?L1 (not ?M1)))))
(let (($x302478 (or (not ?K1) ?L1)))
(let (($x421126 (or (not ?N1) (and ?K1 ?O1 ?E1))))
(let (($x319489 (or (not ?N1) ?O1)))
(let (($x405816 (or (not ?P1) (and ?K1 ?Q1 (not ?E1)))))
(let (($x591554 (or (not ?P1) ?Q1)))
(let (($x344407 (or (not ?R1) (and ?P1 ?S1 ?T1))))
(let (($x492561 (or (not ?R1) ?S1)))
(let (($x504387 (>= ?Y1 0.0)))
(let (($x351767 (<= ?Y1 0.0)))
(let (($x481001 (and ?V ?D2 (not ?A1) (<= ?W1 0.0) (>= ?W1 0.0) (<= ?X1 ?K) (>= ?X1 ?K) $x351767 $x504387)))
(let (($x345228 (>= ?X1 ?H1)))
(let (($x171134 (<= ?X1 ?H1)))
(let (($x206566 (>= ?W1 ?C)))
(let (($x545028 (<= ?W1 ?C)))
(let (($x356285 (and ?F1 ?C2 ?M1 $x545028 $x206566 $x171134 $x345228 (<= ?Y1 ?D) (>= ?Y1 ?D))))
(let (($x350666 (not ?U1)))
(let (($x214609 (or $x350666 (and ?N1 ?V1 $x545028 $x206566 $x171134 $x345228 (<= ?Y1 ?Z1) (>= ?Y1 ?Z1)) (and ?R1 ?A2 $x545028 $x206566 $x171134 $x345228 (<= ?Y1 ?D) (>= ?Y1 ?D)) (and ?P1 ?B2 (not ?T1) $x545028 $x206566 $x171134 $x345228 $x351767 $x504387) $x356285 $x481001)))
(let (($x279878 (or $x350666 (and ?V1 (not ?A2) (not ?B2) (not ?C2) (not ?D2)) (and ?A2 (not ?V1) (not ?B2) (not ?C2) (not ?D2)) (and ?B2 (not ?V1) (not ?A2) (not ?C2) (not ?D2)) (and ?C2 (not ?V1) (not ?A2) (not ?B2) (not ?D2)) (and ?D2 (not ?V1) (not ?A2) (not ?B2) (not ?C2)))))
(let (($x42931 (= ?U1 true)))
(let (($x488502 (= ?H (= ?F2 0.0))))
(let (($x296633 (= ?H2 (ite ?G2 1.0 0.0))))
(let (($x635918 (= ?P (= ?I2 0.0))))
(let (($x83568 (= ?T (ite ?J2 1.0 0.0))))
(let (($x295061 (= ?X (= ?K2 0.0))))
(let (($x453213 (= ?A1 (= ?L2 0.0))))
(let (($x699381 (= ?M2 (not (<= ?K 0.0)))))
(let (($x521484 (= ?N2 (+ (~ 1.0) ?K))))
(let (($x286424 (= ?I1 (ite ?M2 ?N2 ?K))))
(let (($x608407 (= ?O2 (not (<= ?H1 1.0)))))
(let (($x287342 (= ?T1 (= ?H1 0.0))))
(let (($x863062 (= ?P2 (= ?S 0.0))))
(let (($x259428 (= ?Q2 (= ?Y1 0.0))))
(let (($x16623 (|cp-rel-bb1.i.i| ?A ?B ?C ?D)))
(let (($x817755 (and $x16623 $x259428 $x863062 $x287342 (= ?Z1 (ite ?O2 1.0 ?D)) $x608407 (= ?M1 (= ?C 0.0)) $x286424 $x521484 $x699381 (= ?E1 (= ?D 0.0)) $x453213 $x295061 $x83568 (= ?J2 (= ?A 0.0)) $x635918 (= ?L (+ ?H2 ?B)) $x296633 (= ?G2 (not (<= 2.0 ?B))) $x488502 (not (= ?E2 true)) $x42931 $x279878 $x214609 $x492561 $x344407 $x591554 $x405816 $x319489 $x421126 $x302478 $x39641 $x183996 $x627010 $x185077 $x409724 $x232817 $x863397 $x142106 $x472722 $x298685 $x510111 $x475947 $x624492 $x16327 $x573139 $x911165 $x293572 $x38643)))
(=> $x817755 |cp-rel-bb1.i.i26.i.i|))))))))))))))))))))))))))))))))))))))))))))))))))))))))
)
(assert (not cp-rel-bb1.i.i26.i.i))
(check-sat)
